NAME: tsp25_9
COMMENT: 25-tsp problem (Padberg/Rinaldi)
TYPE: TSP
DIMENSION: 25
EDGE_WEIGHT_TYPE : EUC_2D
NODE_COORD_SECTION
1 38 17
2 15 16
3 27 11
4 27 28
5 14 9
6 1 39
7 30 11
8 30 37
9 38 1
10 38 7
11 36 29
12 38 22
13 36 14
14 14 34
15 19 22
16 8 11
17 6 38
18 27 19
19 17 7
20 39 31
21 23 34
22 25 24
23 31 16
24 38 40
25 12 11
